
Gurobi 6.5.2 (linux64) logging started Wed Aug 31 10:35:31 2016

Optimize a model with 201 rows, 1585 columns and 3467 nonzeros
Coefficient statistics:
  Matrix range    [1e+00, 2e+00]
  Objective range [1e+00, 1e+02]
  Bounds range    [1e+00, 1e+00]
  RHS range       [1e+00, 1e+00]
Found heuristic solution: objective 2823
Presolve removed 57 rows and 8 columns
Presolve time: 0.01s
Presolved: 144 rows, 1577 columns, 3220 nonzeros
Variable types: 0 continuous, 1577 integer (1577 binary)

Root relaxation: objective 7.072500e+02, 128 iterations, 0.00 seconds

    Nodes    |    Current Node    |     Objective Bounds      |     Work
 Expl Unexpl |  Obj  Depth IntInf | Incumbent    BestBd   Gap | It/Node Time

     0     0  707.25000    0   48 2823.00000  707.25000  74.9%     -    0s
H    0     0                    1156.0000000  707.25000  38.8%     -    0s
H    0     0                     925.0000000  707.25000  23.5%     -    0s
     0     0  782.96111    0   94  925.00000  782.96111  15.4%     -    0s
H    0     0                     905.0000000  782.96111  13.5%     -    0s
     0     0  803.23188    0   70  905.00000  803.23188  11.2%     -    0s
     0     0  803.84783    0   80  905.00000  803.84783  11.2%     -    0s
     0     0  809.88750    0   79  905.00000  809.88750  10.5%     -    0s
     0     0  810.06944    0   82  905.00000  810.06944  10.5%     -    0s
     0     0  820.54167    0   78  905.00000  820.54167  9.33%     -    0s
     0     0  821.46667    0   95  905.00000  821.46667  9.23%     -    0s
     0     0  826.54167    0   88  905.00000  826.54167  8.67%     -    0s
     0     0  826.65296    0  101  905.00000  826.65296  8.66%     -    0s
H    0     0                     881.0000000  826.65296  6.17%     -    0s
     0     0  826.65296    0   48  881.00000  826.65296  6.17%     -    0s
H    0     0                     857.0000000  826.65296  3.54%     -    0s
     0     0  826.65296    0   51  857.00000  826.65296  3.54%     -    0s
     0     0  826.65296    0   81  857.00000  826.65296  3.54%     -    0s
     0     0  826.65296    0   78  857.00000  826.65296  3.54%     -    0s
     0     0  826.65296    0   48  857.00000  826.65296  3.54%     -    0s
     0     0  826.65296    0   53  857.00000  826.65296  3.54%     -    0s
     0     0  826.65296    0   90  857.00000  826.65296  3.54%     -    0s
H    0     0                     847.0000000  826.65296  2.40%     -    0s
     0     0  827.86806    0   75  847.00000  827.86806  2.26%     -    0s
     0     0  827.86806    0   48  847.00000  827.86806  2.26%     -    0s
     0     0  827.86806    0   53  847.00000  827.86806  2.26%     -    0s
     0     0  827.86806    0   84  847.00000  827.86806  2.26%     -    0s
     0     0  827.90717    0   78  847.00000  827.90717  2.25%     -    0s
     0     0  827.92593    0   46  847.00000  827.92593  2.25%     -    0s
     0     0  829.36571    0   80  847.00000  829.36571  2.08%     -    0s
     0     0  829.36571    0   53  847.00000  829.36571  2.08%     -    0s
     0     0  829.36571    0   48  847.00000  829.36571  2.08%     -    0s
     0     0  829.36571    0   63  847.00000  829.36571  2.08%     -    0s
     0     0  829.36571    0   35  847.00000  829.36571  2.08%     -    0s
     0     0  829.45423    0   66  847.00000  829.45423  2.07%     -    0s
     0     0  831.71000    0   52  847.00000  831.71000  1.81%     -    0s
     0     0  831.71000    0   52  847.00000  831.71000  1.81%     -    0s
     0     0  831.71000    0   48  847.00000  831.71000  1.81%     -    0s
     0     0  831.71000    0   47  847.00000  831.71000  1.81%     -    0s
     0     0  831.71000    0   74  847.00000  831.71000  1.81%     -    0s
     0     0  831.71000    0   36  847.00000  831.71000  1.81%     -    0s
     0     0  831.86582    0   97  847.00000  831.86582  1.79%     -    0s
     0     0  833.21053    0   48  847.00000  833.21053  1.63%     -    0s
     0     0  833.31731    0   68  847.00000  833.31731  1.62%     -    0s
     0     0  833.31731    0   68  847.00000  833.31731  1.62%     -    0s
H    0     0                     835.0000000  833.31731  0.20%     -    0s
     0     0     cutoff    0       835.00000  834.00084  0.12%     -    0s

Explored 0 nodes (1965 simplex iterations) in 0.45 seconds
Thread count was 8 (of 8 available processors)

Optimal solution found (tolerance 1.00e-04)
Best objective 8.350000000000e+02, best bound 8.350000000000e+02, gap 0.0%
